; smt2 file for the example in slide 22
(declare-const x1 Int)
(declare-const x2 Int)
(declare-const x3 Int)
(declare-const f1 Int)
(declare-const f2 Int)
(declare-const f3 Int)

(assert (or (not (= x1 x2)) (= f1 f2) (not (= f1 f3)) ) )
(assert (=> (= x1 x2) (= f1 f2) ) )
(assert (=> (= x1 x3) (= f1 f3) ) )
(assert (=> (= x2 x3) (= f2 f3) ) )
(check-sat)
(get-model)
(exit)